certificates/rado_a11_c52_N22.cnf
c Rad2 upper bound instance: x1 + 11*x2 - x3 = 52, interval [1,22]
p cnf 22 88
1 4 5 0
-1 -4 -5 0
1 6 15 0
-1 -6 -15 0
2 5 0
-2 -5 0
2 6 16 0
-2 -6 -16 0
3 5 6 0
-3 -5 -6 0
3 6 17 0
-3 -6 -17 0
4 5 7 0
-4 -5 -7 0
4 6 18 0
-4 -6 -18 0
5 8 0
-5 -8 0
5 6 19 0
-5 -6 -19 0
5 6 9 0
-5 -6 -9 0
6 20 0
-6 -20 0
5 7 10 0
-5 -7 -10 0
6 7 21 0
-6 -7 -21 0
5 8 11 0
-5 -8 -11 0
6 8 22 0
-6 -8 -22 0
1 4 9 0
-1 -4 -9 0
5 9 12 0
-5 -9 -12 0
2 4 10 0
-2 -4 -10 0
5 10 13 0
-5 -10 -13 0
3 4 11 0
-3 -4 -11 0
5 11 14 0
-5 -11 -14 0
4 12 0
-4 -12 0
5 12 15 0
-5 -12 -15 0
4 5 13 0
-4 -5 -13 0
5 13 16 0
-5 -13 -16 0
4 6 14 0
-4 -6 -14 0
5 14 17 0
-5 -14 -17 0
4 7 15 0
-4 -7 -15 0
5 15 18 0
-5 -15 -18 0
4 8 16 0
-4 -8 -16 0
5 16 19 0
-5 -16 -19 0
4 9 17 0
-4 -9 -17 0
5 17 20 0
-5 -17 -20 0
4 10 18 0
-4 -10 -18 0
5 18 21 0
-5 -18 -21 0
4 11 19 0
-4 -11 -19 0
5 19 22 0
-5 -19 -22 0
1 3 20 0
-1 -3 -20 0
4 12 20 0
-4 -12 -20 0
2 3 21 0
-2 -3 -21 0
4 13 21 0
-4 -13 -21 0
3 22 0
-3 -22 0
4 14 22 0
-4 -14 -22 0
