certificates/rado_a11_c52_N22.drat
-20 3 0
-22 0
3 0
20 0
-6 0
-1 0
8 0
15 0
-5 0
2 0
4 0
19 0
9 0
-21 0
-10 0
-12 0
-11 0
-16 0
-7 0
-17 0
0
